22
1 0 48
2 0 28
2 1 27
3 0 50
3 1 52
3 2 42
4 0 31
4 1 12
4 2 40
4 3 54
5 0 57
5 1 21
5 2 21
5 3 63
5 4 49
6 0 42
6 1 44
6 2 58
6 3 17
6 4 22
6 5 58
7 0 54
7 1 5
7 2 9
7 3 42
7 4 38
7 5 47
7 6 24
8 0 54
8 1 2
8 2 60
8 3 45
8 4 31
8 5 12
8 6 34
8 7 9
9 0 21
9 1 63
9 2 13
9 3 23
9 4 36
9 5 36
9 6 56
9 7 42
9 8 37
10 0 26
10 1 15
10 2 38
10 3 16
10 4 14
10 5 51
10 6 29
10 7 49
10 8 51
10 9 61
11 0 8
11 1 56
11 2 40
11 3 24
11 4 57
11 5 39
11 6 50
11 7 52
11 8 18
11 9 19
11 10 28
12 0 36
12 1 49
12 2 33
12 3 13
12 4 30
12 5 33
12 6 54
12 7 50
12 8 54
12 9 60
12 10 56
12 11 59
13 0 28
13 1 48
13 2 51
13 3 37
13 4 11
13 5 15
13 6 36
13 7 42
13 8 32
13 9 36
13 10 19
13 11 61
13 12 45
14 0 28
14 1 37
14 2 10
14 3 5
14 4 23
14 5 46
14 6 36
14 7 7
14 8 29
14 9 11
14 10 43
14 11 15
14 12 32
14 13 42
15 0 9
15 1 26
15 2 43
15 3 50
15 4 56
15 5 53
15 6 10
15 7 6
15 8 50
15 9 30
15 10 28
15 11 44
15 12 42
15 13 17
15 14 21
16 0 24
16 1 44
16 2 9
16 3 46
16 4 23
16 5 43
16 6 12
16 7 36
16 8 24
16 9 32
16 10 47
16 11 57
16 12 34
16 13 53
16 14 1
16 15 45
17 0 24
17 1 63
17 2 39
17 3 51
17 4 4
17 5 20
17 6 21
17 7 27
17 8 14
17 9 40
17 10 44
17 11 48
17 12 27
17 13 40
17 14 9
17 15 57
17 16 4
18 0 15
18 1 15
18 2 61
18 3 62
18 4 14
18 5 57
18 6 5
18 7 29
18 8 42
18 9 42
18 10 54
18 11 60
18 12 8
18 13 29
18 14 13
18 15 11
18 16 33
18 17 27
19 0 53
19 1 10
19 2 7
19 3 55
19 4 55
19 5 12
19 6 58
19 7 5
19 8 61
19 9 21
19 10 56
19 11 58
19 12 26
19 13 21
19 14 16
19 15 18
19 16 57
19 17 28
19 18 57
20 0 46
20 1 49
20 2 23
20 3 1
20 4 8
20 5 3
20 6 24
20 7 1
20 8 58
20 9 44
20 10 31
20 11 44
20 12 22
20 13 49
20 14 45
20 15 58
20 16 58
20 17 26
20 18 25
20 19 36
21 0 50
21 1 50
21 2 54
21 3 24
21 4 54
21 5 41
21 6 48
21 7 49
21 8 52
21 9 54
21 10 14
21 11 13
21 12 32
21 13 11
21 14 11
21 15 10
21 16 2
21 17 19
21 18 56
21 19 9
21 20 57
